c nIsolatedPIs 0
c maxPI 64
p cnf 259 586
c gate 65 -16 -48 0
-16 -65 0
-48 -65 0
16 48 65 0
c gate 66 16 48 0
16 -66 0
48 -66 0
-16 -48 66 0
c gate 67 15 47 0
15 -67 0
47 -67 0
-15 -47 67 0
c gate 68 -66 -67 0
-66 -68 0
-67 -68 0
66 67 68 0
c gate 69 -65 -68 0
-65 -69 0
-68 -69 0
65 68 69 0
c gate 70 -14 -46 0
-14 -70 0
-46 -70 0
14 46 70 0
c gate 71 14 46 0
14 -71 0
46 -71 0
-14 -46 71 0
c gate 72 2 34 0
2 -72 0
34 -72 0
-2 -34 72 0
c gate 73 1 33 0
1 -73 0
33 -73 0
-1 -33 73 0
c gate 74 -72 -73 0
-72 -74 0
-73 -74 0
72 73 74 0
c gate 75 -3 -35 0
-3 -75 0
-35 -75 0
3 35 75 0
c gate 76 -2 -34 0
-2 -76 0
-34 -76 0
2 34 76 0
c gate 77 -75 -76 0
-75 -77 0
-76 -77 0
75 76 77 0
c gate 78 -74 77 0
-74 -78 0
77 -78 0
74 -77 78 0
c gate 79 3 35 0
3 -79 0
35 -79 0
-3 -35 79 0
c gate 80 4 36 0
4 -80 0
36 -80 0
-4 -36 80 0
c gate 81 -79 -80 0
-79 -81 0
-80 -81 0
79 80 81 0
c gate 82 -78 81 0
-78 -82 0
81 -82 0
78 -81 82 0
c gate 83 8 40 0
8 -83 0
40 -83 0
-8 -40 83 0
c gate 84 7 39 0
7 -84 0
39 -84 0
-7 -39 84 0
c gate 85 -83 -84 0
-83 -85 0
-84 -85 0
83 84 85 0
c gate 86 -8 -40 0
-8 -86 0
-40 -86 0
8 40 86 0
c gate 87 -7 -39 0
-7 -87 0
-39 -87 0
7 39 87 0
c gate 88 -86 -87 0
-86 -88 0
-87 -88 0
86 87 88 0
c gate 89 85 88 0
85 -89 0
88 -89 0
-85 -88 89 0
c gate 90 5 37 0
5 -90 0
37 -90 0
-5 -37 90 0
c gate 91 6 38 0
6 -91 0
38 -91 0
-6 -38 91 0
c gate 92 -90 -91 0
-90 -92 0
-91 -92 0
90 91 92 0
c gate 93 -5 -37 0
-5 -93 0
-37 -93 0
5 37 93 0
c gate 94 -4 -36 0
-4 -94 0
-36 -94 0
4 36 94 0
c gate 95 -6 -38 0
-6 -95 0
-38 -95 0
6 38 95 0
c gate 96 -94 -95 0
-94 -96 0
-95 -96 0
94 95 96 0
c gate 97 -93 96 0
-93 -97 0
96 -97 0
93 -96 97 0
c gate 98 92 97 0
92 -98 0
97 -98 0
-92 -97 98 0
c gate 99 89 98 0
89 -99 0
98 -99 0
-89 -98 99 0
c gate 100 -82 99 0
-82 -100 0
99 -100 0
82 -99 100 0
c gate 101 -9 -41 0
-9 -101 0
-41 -101 0
9 41 101 0
c gate 102 -10 -42 0
-10 -102 0
-42 -102 0
10 42 102 0
c gate 103 9 41 0
9 -103 0
41 -103 0
-9 -41 103 0
c gate 104 -102 -103 0
-102 -104 0
-103 -104 0
102 103 104 0
c gate 105 -101 104 0
-101 -105 0
104 -105 0
101 -104 105 0
c gate 106 100 105 0
100 -106 0
105 -106 0
-100 -105 106 0
c gate 107 -85 -86 0
-85 -107 0
-86 -107 0
85 86 107 0
c gate 108 -92 -95 0
-92 -108 0
-95 -108 0
92 95 108 0
c gate 109 89 108 0
89 -109 0
108 -109 0
-89 -108 109 0
c gate 110 -107 -109 0
-107 -110 0
-109 -110 0
107 109 110 0
c gate 111 105 -110 0
105 -111 0
-110 -111 0
-105 110 111 0
c gate 112 -102 103 0
-102 -112 0
103 -112 0
102 -103 112 0
c gate 113 10 42 0
10 -113 0
42 -113 0
-10 -42 113 0
c gate 114 -112 -113 0
-112 -114 0
-113 -114 0
112 113 114 0
c gate 115 -111 114 0
-111 -115 0
114 -115 0
111 -114 115 0
c gate 116 -106 115 0
-106 -116 0
115 -116 0
106 -115 116 0
c gate 117 11 43 0
11 -117 0
43 -117 0
-11 -43 117 0
c gate 118 12 44 0
12 -118 0
44 -118 0
-12 -44 118 0
c gate 119 -117 -118 0
-117 -119 0
-118 -119 0
117 118 119 0
c gate 120 -11 -43 0
-11 -120 0
-43 -120 0
11 43 120 0
c gate 121 -12 -44 0
-12 -121 0
-44 -121 0
12 44 121 0
c gate 122 -120 -121 0
-120 -122 0
-121 -122 0
120 121 122 0
c gate 123 119 122 0
119 -123 0
122 -123 0
-119 -122 123 0
c gate 124 -116 123 0
-116 -124 0
123 -124 0
116 -123 124 0
c gate 125 13 45 0
13 -125 0
45 -125 0
-13 -45 125 0
c gate 126 -119 -121 0
-119 -126 0
-121 -126 0
119 121 126 0
c gate 127 -125 -126 0
-125 -127 0
-126 -127 0
125 126 127 0
c gate 128 -124 127 0
-124 -128 0
127 -128 0
124 -127 128 0
c gate 129 -13 -45 0
-13 -129 0
-45 -129 0
13 45 129 0
c gate 130 -70 -129 0
-70 -130 0
-129 -130 0
70 129 130 0
c gate 131 -128 130 0
-128 -131 0
130 -131 0
128 -130 131 0
c gate 132 -71 -131 0
-71 -132 0
-131 -132 0
71 131 132 0
c gate 133 -65 -66 0
-65 -133 0
-66 -133 0
65 66 133 0
c gate 134 -15 -47 0
-15 -134 0
-47 -134 0
15 47 134 0
c gate 135 -67 -134 0
-67 -135 0
-134 -135 0
67 134 135 0
c gate 136 133 135 0
133 -136 0
135 -136 0
-133 -135 136 0
c gate 137 -132 136 0
-132 -137 0
136 -137 0
132 -136 137 0
c gate 138 70 137 0
70 -138 0
137 -138 0
-70 -137 138 0
c gate 139 -70 136 0
-70 -139 0
136 -139 0
70 -136 139 0
c gate 140 132 139 0
132 -140 0
139 -140 0
-132 -139 140 0
c gate 141 -138 -140 0
-138 -141 0
-140 -141 0
138 140 141 0
c gate 142 -69 -141 0
-69 -142 0
-141 -142 0
69 141 142 0
c gate 143 -102 123 0
-102 -143 0
123 -143 0
102 -123 143 0
c gate 144 -124 -143 0
-124 -144 0
-143 -144 0
124 143 144 0
c gate 145 102 -129 0
102 -145 0
-129 -145 0
-102 129 145 0
c gate 146 -125 145 0
-125 -146 0
145 -146 0
125 -145 146 0
c gate 147 -116 -146 0
-116 -147 0
-146 -147 0
116 146 147 0
c gate 148 -144 -147 0
-144 -148 0
-147 -148 0
144 147 148 0
c gate 149 -100 -148 0
-100 -149 0
-148 -149 0
100 148 149 0
c gate 150 115 124 0
115 -150 0
124 -150 0
-115 -124 150 0
c gate 151 -148 -150 0
-148 -151 0
-150 -151 0
148 150 151 0
c gate 152 127 -143 0
127 -152 0
-143 -152 0
-127 143 152 0
c gate 153 130 133 0
130 -153 0
133 -153 0
-130 -133 153 0
c gate 154 -152 153 0
-152 -154 0
153 -154 0
152 -153 154 0
c gate 155 132 -154 0
132 -155 0
-154 -155 0
-132 154 155 0
c gate 156 -133 152 0
-133 -156 0
152 -156 0
133 -152 156 0
c gate 157 131 -156 0
131 -157 0
-156 -157 0
-131 156 157 0
c gate 158 -71 135 0
-71 -158 0
135 -158 0
71 -135 158 0
c gate 159 -157 158 0
-157 -159 0
158 -159 0
157 -158 159 0
c gate 160 -155 159 0
-155 -160 0
159 -160 0
155 -159 160 0
c gate 161 -151 -160 0
-151 -161 0
-160 -161 0
151 160 161 0
c gate 162 -149 -161 0
-149 -162 0
-161 -162 0
149 161 162 0
c gate 163 -30 -62 0
-30 -163 0
-62 -163 0
30 62 163 0
c gate 164 -29 -61 0
-29 -164 0
-61 -164 0
29 61 164 0
c gate 165 -163 -164 0
-163 -165 0
-164 -165 0
163 164 165 0
c gate 166 28 60 0
28 -166 0
60 -166 0
-28 -60 166 0
c gate 167 29 61 0
29 -167 0
61 -167 0
-29 -61 167 0
c gate 168 -166 -167 0
-166 -168 0
-167 -168 0
166 167 168 0
c gate 169 -20 -52 0
-20 -169 0
-52 -169 0
20 52 169 0
c gate 170 -18 -50 0
-18 -170 0
-50 -170 0
18 50 170 0
c gate 171 -19 -51 0
-19 -171 0
-51 -171 0
19 51 171 0
c gate 172 -170 -171 0
-170 -172 0
-171 -172 0
170 171 172 0
c gate 173 17 49 0
17 -173 0
49 -173 0
-17 -49 173 0
c gate 174 18 50 0
18 -174 0
50 -174 0
-18 -50 174 0
c gate 175 -173 -174 0
-173 -175 0
-174 -175 0
173 174 175 0
c gate 176 -69 -137 0
-69 -176 0
-137 -176 0
69 137 176 0
c gate 177 -17 -49 0
-17 -177 0
-49 -177 0
17 49 177 0
c gate 178 -176 -177 0
-176 -178 0
-177 -178 0
176 177 178 0
c gate 179 175 -178 0
175 -179 0
-178 -179 0
-175 178 179 0
c gate 180 172 -179 0
172 -180 0
-179 -180 0
-172 179 180 0
c gate 181 19 51 0
19 -181 0
51 -181 0
-19 -51 181 0
c gate 182 20 52 0
20 -182 0
52 -182 0
-20 -52 182 0
c gate 183 -181 -182 0
-181 -183 0
-182 -183 0
181 182 183 0
c gate 184 -180 183 0
-180 -184 0
183 -184 0
180 -183 184 0
c gate 185 -169 -184 0
-169 -185 0
-184 -185 0
169 184 185 0
c gate 186 -21 -53 0
-21 -186 0
-53 -186 0
21 53 186 0
c gate 187 185 -186 0
185 -187 0
-186 -187 0
-185 186 187 0
c gate 188 21 53 0
21 -188 0
53 -188 0
-21 -53 188 0
c gate 189 22 54 0
22 -189 0
54 -189 0
-22 -54 189 0
c gate 190 -188 -189 0
-188 -190 0
-189 -190 0
188 189 190 0
c gate 191 -24 -56 0
-24 -191 0
-56 -191 0
24 56 191 0
c gate 192 24 56 0
24 -192 0
56 -192 0
-24 -56 192 0
c gate 193 23 55 0
23 -193 0
55 -193 0
-23 -55 193 0
c gate 194 -192 -193 0
-192 -194 0
-193 -194 0
192 193 194 0
c gate 195 -191 -194 0
-191 -195 0
-194 -195 0
191 194 195 0
c gate 196 190 -195 0
190 -196 0
-195 -196 0
-190 195 196 0
c gate 197 -187 196 0
-187 -197 0
196 -197 0
187 -196 197 0
c gate 198 -25 -57 0
-25 -198 0
-57 -198 0
25 57 198 0
c gate 199 -23 -55 0
-23 -199 0
-55 -199 0
23 55 199 0
c gate 200 -22 -54 0
-22 -200 0
-54 -200 0
22 54 200 0
c gate 201 -191 -200 0
-191 -201 0
-200 -201 0
191 200 201 0
c gate 202 -199 201 0
-199 -202 0
201 -202 0
199 -201 202 0
c gate 203 194 202 0
194 -203 0
202 -203 0
-194 -202 203 0
c gate 204 -195 -203 0
-195 -204 0
-203 -204 0
195 203 204 0
c gate 205 -198 -204 0
-198 -205 0
-204 -205 0
198 204 205 0
c gate 206 -197 205 0
-197 -206 0
205 -206 0
197 -205 206 0
c gate 207 25 57 0
25 -207 0
57 -207 0
-25 -57 207 0
c gate 208 26 58 0
26 -208 0
58 -208 0
-26 -58 208 0
c gate 209 -207 -208 0
-207 -209 0
-208 -209 0
207 208 209 0
c gate 210 -206 209 0
-206 -210 0
209 -210 0
206 -209 210 0
c gate 211 27 59 0
27 -211 0
59 -211 0
-27 -59 211 0
c gate 212 210 -211 0
210 -212 0
-211 -212 0
-210 211 212 0
c gate 213 -28 -60 0
-28 -213 0
-60 -213 0
28 60 213 0
c gate 214 -27 -59 0
-27 -214 0
-59 -214 0
27 59 214 0
c gate 215 -213 -214 0
-213 -215 0
-214 -215 0
213 214 215 0
c gate 216 -26 -58 0
-26 -216 0
-58 -216 0
26 58 216 0
c gate 217 -211 216 0
-211 -217 0
216 -217 0
211 -216 217 0
c gate 218 215 -217 0
215 -218 0
-217 -218 0
-215 217 218 0
c gate 219 -212 218 0
-212 -219 0
218 -219 0
212 -218 219 0
c gate 220 168 -219 0
168 -220 0
-219 -220 0
-168 219 220 0
c gate 221 165 -220 0
165 -221 0
-220 -221 0
-165 220 221 0
c gate 222 168 -218 0
168 -222 0
-218 -222 0
-168 218 222 0
c gate 223 31 63 0
31 -223 0
63 -223 0
-31 -63 223 0
c gate 224 32 64 0
32 -224 0
64 -224 0
-32 -64 224 0
c gate 225 -31 -63 0
-31 -225 0
-63 -225 0
31 63 225 0
c gate 226 -224 -225 0
-224 -226 0
-225 -226 0
224 225 226 0
c gate 227 -223 226 0
-223 -227 0
226 -227 0
223 -226 227 0
c gate 228 30 62 0
30 -228 0
62 -228 0
-30 -62 228 0
c gate 229 -32 -64 0
-32 -229 0
-64 -229 0
32 64 229 0
c gate 230 -228 -229 0
-228 -230 0
-229 -230 0
228 229 230 0
c gate 231 165 230 0
165 -231 0
230 -231 0
-165 -230 231 0
c gate 232 227 231 0
227 -232 0
231 -232 0
-227 -231 232 0
c gate 233 -222 232 0
-222 -233 0
232 -233 0
222 -232 233 0
c gate 234 -221 233 0
-221 -234 0
233 -234 0
221 -233 234 0
c gate 235 205 -216 0
205 -235 0
-216 -235 0
-205 216 235 0
c gate 236 210 235 0
210 -236 0
235 -236 0
-210 -235 236 0
c gate 237 -142 162 0
-142 -237 0
162 -237 0
142 -162 237 0
c gate 238 172 -181 0
172 -238 0
-181 -238 0
-172 181 238 0
c gate 239 -169 -182 0
-169 -239 0
-182 -239 0
169 182 239 0
c gate 240 238 239 0
238 -240 0
239 -240 0
-238 -239 240 0
c gate 241 -185 240 0
-185 -241 0
240 -241 0
185 -240 241 0
c gate 242 237 -241 0
237 -242 0
-241 -242 0
-237 241 242 0
c gate 243 -186 190 0
-186 -243 0
190 -243 0
186 -190 243 0
c gate 244 203 243 0
203 -244 0
243 -244 0
-203 -243 244 0
c gate 245 241 244 0
241 -245 0
244 -245 0
-241 -244 245 0
c gate 246 -242 -245 0
-242 -246 0
-245 -246 0
242 245 246 0
c gate 247 197 203 0
197 -247 0
203 -247 0
-197 -203 247 0
c gate 248 -246 -247 0
-246 -248 0
-247 -248 0
246 247 248 0
c gate 249 -236 248 0
-236 -249 0
248 -249 0
236 -248 249 0
c gate 250 -166 215 0
-166 -250 0
215 -250 0
166 -215 250 0
c gate 251 -211 250 0
-211 -251 0
250 -251 0
211 -250 251 0
c gate 252 236 251 0
236 -252 0
251 -252 0
-236 -251 252 0
c gate 253 -249 -252 0
-249 -253 0
-252 -253 0
249 252 253 0
c gate 254 -217 250 0
-217 -254 0
250 -254 0
217 -250 254 0
c gate 255 212 254 0
212 -255 0
254 -255 0
-212 -254 255 0
c gate 256 -253 -255 0
-253 -256 0
-255 -256 0
253 255 256 0
c gate 257 -234 256 0
-234 -257 0
256 -257 0
234 -256 257 0
c gate 258 162 -257 0
162 -258 0
-257 -258 0
-162 257 258 0
c gate 259 -142 258 0
-142 -259 0
258 -259 0
142 -258 259 0
c PO
259 0
